31 62 88 
27 69 30 20 66 32 70 
63 64 11 90 10 
83 45 8 84 17 60 89 
21 73 75 56 4 
14 42 15 57 87 97 13 
33 81 79 78 34 35 77 
65 71 9 51 50 1 
53 40 26 
12 29 24 25 
2 41 22 74 58 
92 98 61 86 85 37 96 
47 36 19 49 46 48 
95 59 99 94 6 
5 16 44 38 43 100 91 93 
52 82 7 18 
72 39 23 67 55 54 
28 76 3 68 80 
